(declare-fun _for_it_69 () Int)
(declare-fun kfdia () Int)
(declare-fun kidia () Int)
(declare-fun klev () Int)
(declare-fun ncldtop () Int)

(assert (and
  (and
    (<= (+ _for_it_69 1) 4)
    (<= kidia (+ kfdia (- 1)))
    (<= ncldtop (+ klev (- 1)))
    (<= 0 _for_it_69)
  )
  (forall ((_for_it_70_0 Int) (_for_it_70_1 Int) (_for_it_71_0 Int) (_for_it_71_1 Int))
    (or
      (not (= _for_it_71_0 _for_it_71_1))
      (not (= _for_it_69 (+ _for_it_69 1)))
      (not (<= _for_it_71_1 (+ kfdia (- 1))))
      (not (<= (+ kidia (- 1)) _for_it_71_1))
      (not (<= 0 _for_it_70_0))
      (not (<= _for_it_70_0 4))
      (not (<= _for_it_71_0 (+ kfdia (- 1))))
      (not (<= (+ kidia (- 1)) _for_it_71_0))
      (not (<= 0 _for_it_70_1))
      (not (<= _for_it_70_1 4))
    )
  )
))

(check-sat)